set VARIABLES := 1 2 3 4 5 6 7 8 9;
set CONSTRAINTS := 1 2 3 4 5 6 7 8 9 10 11 12 13 14 15 16 17 18 19 20 21 22 23 24 25 26 27;

param c :=
 1   5
 2   7
 3   9
 4   5
 5   1
 6   3
 7   1
 8   2
 9   1
 ;

param b :=
 1  10
 2   1
 3   1
 4   1
 5   1
 6   1
 7   1
 8   2
 9   2
10   2
11   2
12   2
13   2
14   2
15   2
16   2
17   2
18   2
19   2
20   2
21   3
22   3
23   3
24   3
25   3
26   3
27   4
 ;

param a (tr) :
     1   2   3   4   5   6   7   8   9 :=
 1   9   7   6   4   3   3   2   2   1
 2   1   0   0   0   0   0   0   1   0
 3   1   0   0   0   0   0   1   0   0
 4   1   0   0   0   0   1   0   0   0
 5   1   0   0   0   1   0   0   0   0
 6   1   1   0   1   0   0   0   0   0
 7   1   1   1   0   0   0   0   0   0
 8   1   1   0   0   0   1   0   0   1
 9   1   1   0   0   1   0   0   0   1
10   1   1   1   1   0   0   0   0   1
11   2   1   0   0   0   0   1   1   0
12   2   1   1   0   0   1   0   1   0
13   2   1   1   0   0   1   1   0   0
14   2   1   1   0   1   0   0   1   0
15   2   1   1   0   1   0   1   0   0
16   2   1   1   0   1   1   0   0   0
17   2   1   1   1   0   0   0   1   0
18   2   1   1   1   0   0   1   0   0
19   2   1   1   1   0   1   0   0   0
20   2   1   1   1   1   0   0   0   0
21   2   1   1   0   0   0   1   1   1
22   2   2   1   1   1   1   0   0   1
23   3   2   1   1   0   1   1   1   0
24   3   2   1   1   1   0   1   1   0
25   3   2   2   1   1   1   0   1   0
26   3   2   2   1   1   1   1   0   0
27   3   2   2   1   1   1   1   1   1
 ;
